benchmark/results/graph__10-1000-0.10-04_14/graph__10-1000-0.10-04_14_QuintonOs_Monolithic.lp
\ This file has been generated by DOcplex
\ ENCODING=ISO-8859-1
\Problem name: Quinton Bounded Monolithic

Maximize
 obj: tau
Subject To
 c1: tau - 0.001639344262 m_a0_proc_0 - 0.000843881857 m_a0_proc_1
     - 0.001075268817 m_a0_proc_2 - 0.001443001443 m_a0_proc_3 <= 0
 c2: y_a0_proc_0 + y_a0_proc_1 + y_a0_proc_2 + y_a0_proc_3 - tau = 0
 c3: m_a0_proc_0 + m_a0_proc_1 + m_a0_proc_2 + m_a0_proc_3 = 1
 c4: y_a0_proc_0 - m_a0_proc_0 <= 0
 c5: y_a0_proc_0 >= 0
 c6: y_a0_proc_1 - m_a0_proc_1 <= 0
 c7: y_a0_proc_1 >= 0
 c8: y_a0_proc_2 - m_a0_proc_2 <= 0
 c9: y_a0_proc_2 >= 0
 c10: y_a0_proc_3 - m_a0_proc_3 <= 0
 c11: y_a0_proc_3 >= 0
 c12: tau - 0.000968992248 m_a1_proc_0 - 0.001242236025 m_a1_proc_1 <= 0
 c13: y_a1_proc_0 + y_a1_proc_1 - tau = 0
 c14: m_a1_proc_0 + m_a1_proc_1 = 1
 c15: y_a1_proc_0 - m_a1_proc_0 <= 0
 c16: y_a1_proc_0 >= 0
 c17: y_a1_proc_1 - m_a1_proc_1 <= 0
 c18: y_a1_proc_1 >= 0
 c19: tau - 0.001030927835 m_a2_proc_0 - 0.001156069364 m_a2_proc_1
      - 0.002915451895 m_a2_proc_2 - 0.000895255148 m_a2_proc_3 <= 0
 c20: y_a2_proc_0 + y_a2_proc_1 + y_a2_proc_2 + y_a2_proc_3 - tau = 0
 c21: m_a2_proc_0 + m_a2_proc_1 + m_a2_proc_2 + m_a2_proc_3 = 1
 c22: y_a2_proc_0 - m_a2_proc_0 <= 0
 c23: y_a2_proc_0 >= 0
 c24: y_a2_proc_1 - m_a2_proc_1 <= 0
 c25: y_a2_proc_1 >= 0
 c26: y_a2_proc_2 - m_a2_proc_2 <= 0
 c27: y_a2_proc_2 >= 0
 c28: y_a2_proc_3 - m_a2_proc_3 <= 0
 c29: y_a2_proc_3 >= 0
 c30: tau - 0.001335113485 m_a3_proc_0 - 0.001420454545 m_a3_proc_2
      - 0.001331557923 m_a3_proc_3 <= 0
 c31: y_a3_proc_0 + y_a3_proc_2 + y_a3_proc_3 - tau = 0
 c32: m_a3_proc_0 + m_a3_proc_2 + m_a3_proc_3 = 1
 c33: y_a3_proc_0 - m_a3_proc_0 <= 0
 c34: y_a3_proc_0 >= 0
 c35: y_a3_proc_2 - m_a3_proc_2 <= 0
 c36: y_a3_proc_2 >= 0
 c37: y_a3_proc_3 - m_a3_proc_3 <= 0
 c38: y_a3_proc_3 >= 0
 c39: tau - 0.001577287066 m_a4_proc_0 <= 0
 c40: y_a4_proc_0 - tau = 0
 c41: m_a4_proc_0 = 1
 c42: y_a4_proc_0 - m_a4_proc_0 <= 0
 c43: y_a4_proc_0 >= 0
 c44: tau - 0.001404494382 m_a5_proc_0 - 0.000893655049 m_a5_proc_1
      - 0.001295336788 m_a5_proc_2 <= 0
 c45: y_a5_proc_0 + y_a5_proc_1 + y_a5_proc_2 - tau = 0
 c46: m_a5_proc_0 + m_a5_proc_1 + m_a5_proc_2 = 1
 c47: y_a5_proc_0 - m_a5_proc_0 <= 0
 c48: y_a5_proc_0 >= 0
 c49: y_a5_proc_1 - m_a5_proc_1 <= 0
 c50: y_a5_proc_1 >= 0
 c51: y_a5_proc_2 - m_a5_proc_2 <= 0
 c52: y_a5_proc_2 >= 0
 c53: tau - 0.001239157373 m_a6_proc_0 - 0.000978473581 m_a6_proc_1
      - 0.002475247525 m_a6_proc_2 - 0.001012145749 m_a6_proc_3 <= 0
 c54: y_a6_proc_0 + y_a6_proc_1 + y_a6_proc_2 + y_a6_proc_3 - tau = 0
 c55: m_a6_proc_0 + m_a6_proc_1 + m_a6_proc_2 + m_a6_proc_3 = 1
 c56: y_a6_proc_0 - m_a6_proc_0 <= 0
 c57: y_a6_proc_0 >= 0
 c58: y_a6_proc_1 - m_a6_proc_1 <= 0
 c59: y_a6_proc_1 >= 0
 c60: y_a6_proc_2 - m_a6_proc_2 <= 0
 c61: y_a6_proc_2 >= 0
 c62: y_a6_proc_3 - m_a6_proc_3 <= 0
 c63: y_a6_proc_3 >= 0
 c64: tau - 0.001013171226 m_a7_proc_0 - 0.001347708895 m_a7_proc_1
      - 0.001443001443 m_a7_proc_3 <= 0
 c65: y_a7_proc_0 + y_a7_proc_1 + y_a7_proc_3 - tau = 0
 c66: m_a7_proc_0 + m_a7_proc_1 + m_a7_proc_3 = 1
 c67: y_a7_proc_0 - m_a7_proc_0 <= 0
 c68: y_a7_proc_0 >= 0
 c69: y_a7_proc_1 - m_a7_proc_1 <= 0
 c70: y_a7_proc_1 >= 0
 c71: y_a7_proc_3 - m_a7_proc_3 <= 0
 c72: y_a7_proc_3 >= 0
 c73: tau - 0.001692047377 m_a8_proc_0 - 0.001831501832 m_a8_proc_1
      - 0.000958772771 m_a8_proc_2 - 0.001017293998 m_a8_proc_3 <= 0
 c74: y_a8_proc_0 + y_a8_proc_1 + y_a8_proc_2 + y_a8_proc_3 - tau = 0
 c75: m_a8_proc_0 + m_a8_proc_1 + m_a8_proc_2 + m_a8_proc_3 = 1
 c76: y_a8_proc_0 - m_a8_proc_0 <= 0
 c77: y_a8_proc_0 >= 0
 c78: y_a8_proc_1 - m_a8_proc_1 <= 0
 c79: y_a8_proc_1 >= 0
 c80: y_a8_proc_2 - m_a8_proc_2 <= 0
 c81: y_a8_proc_2 >= 0
 c82: y_a8_proc_3 - m_a8_proc_3 <= 0
 c83: y_a8_proc_3 >= 0
 c84: tau - 0.001109877913 m_a9_proc_1 - 0.000859106529 m_a9_proc_2
      - 0.001253132832 m_a9_proc_3 <= 0
 c85: y_a9_proc_1 + y_a9_proc_2 + y_a9_proc_3 - tau = 0
 c86: m_a9_proc_1 + m_a9_proc_2 + m_a9_proc_3 = 1
 c87: y_a9_proc_1 - m_a9_proc_1 <= 0
 c88: y_a9_proc_1 >= 0
 c89: y_a9_proc_2 - m_a9_proc_2 <= 0
 c90: y_a9_proc_2 >= 0
 c91: y_a9_proc_3 - m_a9_proc_3 <= 0
 c92: y_a9_proc_3 >= 0
 c93: u_a0 - u_a1 - 1032 y_a1_proc_0 - 805 y_a1_proc_1 >= -1
 c94: u_a2 - u_a0 - 610 y_a0_proc_0 - 1185 y_a0_proc_1 - 930 y_a0_proc_2
      - 693 y_a0_proc_3 >= 0
 c95: u_a3 - u_a1 - 1032 y_a1_proc_0 - 805 y_a1_proc_1 >= 0
 c96: u_a4 - u_a3 - 749 y_a3_proc_0 - 704 y_a3_proc_2 - 751 y_a3_proc_3 >= -1
 c97: u_a5 - u_a2 - 970 y_a2_proc_0 - 865 y_a2_proc_1 - 343 y_a2_proc_2
      - 1117 y_a2_proc_3 >= -1
 c98: u_a1 - u_a6 - 807 y_a6_proc_0 - 1022 y_a6_proc_1 - 404 y_a6_proc_2
      - 988 y_a6_proc_3 >= -1
 c99: u_a6 - u_a7 - 987 y_a7_proc_0 - 742 y_a7_proc_1 - 693 y_a7_proc_3 >= 0
 c100: u_a2 - u_a8 - 591 y_a8_proc_0 - 546 y_a8_proc_1 - 1043 y_a8_proc_2
       - 983 y_a8_proc_3 >= 0
 c101: u_a9 - u_a7 - 987 y_a7_proc_0 - 742 y_a7_proc_1 - 693 y_a7_proc_3 >= 0
 c102: - 901 y_a9_proc_1 - 1164 y_a9_proc_2 - 798 y_a9_proc_3 >= -1
 c103: u_a1 - u_a9 - 901 y_a9_proc_1 - 1164 y_a9_proc_2 - 798 y_a9_proc_3 >= -1
 c104: u_a8 - u_a6 - 807 y_a6_proc_0 - 1022 y_a6_proc_1 - 404 y_a6_proc_2
       - 988 y_a6_proc_3 >= -1
 c105: u_a8 - u_a0 - 610 y_a0_proc_0 - 1185 y_a0_proc_1 - 930 y_a0_proc_2
       - 693 y_a0_proc_3 >= 0
 c106: u_a7 - u_a8 - 591 y_a8_proc_0 - 546 y_a8_proc_1 - 1043 y_a8_proc_2
       - 983 y_a8_proc_3 >= 0
 c107: u_a0 - u_a4 - 634 y_a4_proc_0 >= 0
 c108: u_a8 - u_a5 - 712 y_a5_proc_0 - 1119 y_a5_proc_1 - 772 y_a5_proc_2 >= 0
 c109: u_a1 - u_a0 - 610 y_a0_proc_0 - 1185 y_a0_proc_1 - 930 y_a0_proc_2
       - 693 y_a0_proc_3 >= 0
 c110: u_a2 - u_a5 - 712 y_a5_proc_0 - 1119 y_a5_proc_1 - 772 y_a5_proc_2 >= 0
 c111: u_a4 - u_a5 - 712 y_a5_proc_0 - 1119 y_a5_proc_1 - 772 y_a5_proc_2 >= -1
 c112: u_a1 + K_a0_a1 - 1185 m_a0_proc_0 - 1185 m_a1_proc_0 - u_a0
       - 610 y_a0_proc_0 >= -2370
 c113: u_a1 + K_a0_a1 - 1185 m_a0_proc_1 - 1185 m_a1_proc_1 - u_a0
       - 1185 y_a0_proc_1 >= -2370
 c114: K_a0_a1 + K_a1_a0 = 1
 c115: u_a0 + K_a1_a0 - 1185 m_a0_proc_0 - 1185 m_a1_proc_0 - u_a1
       - 1032 y_a1_proc_0 >= -2370
 c116: u_a0 + K_a1_a0 - 1185 m_a0_proc_1 - 1185 m_a1_proc_1 - u_a1
       - 805 y_a1_proc_1 >= -2370
 c117: K_a0_a1 + K_a1_a0 = 1
 c118: u_a2 + K_a0_a2 - 1185 m_a0_proc_2 - 1185 m_a2_proc_2 - u_a0
       - 930 y_a0_proc_2 >= -2370
 c119: u_a2 + K_a0_a2 - 1185 m_a0_proc_3 - 1185 m_a2_proc_3 - u_a0
       - 693 y_a0_proc_3 >= -2370
 c120: u_a2 + K_a0_a2 - 1185 m_a0_proc_0 - 1185 m_a2_proc_0 - u_a0
       - 610 y_a0_proc_0 >= -2370
 c121: u_a2 + K_a0_a2 - 1185 m_a0_proc_1 - 1185 m_a2_proc_1 - u_a0
       - 1185 y_a0_proc_1 >= -2370
 c122: K_a0_a2 + K_a2_a0 = 1
 c123: u_a0 + K_a2_a0 - 1185 m_a0_proc_2 - 1185 m_a2_proc_2 - u_a2
       - 343 y_a2_proc_2 >= -2370
 c124: u_a0 + K_a2_a0 - 1185 m_a0_proc_3 - 1185 m_a2_proc_3 - u_a2
       - 1117 y_a2_proc_3 >= -2370
 c125: u_a0 + K_a2_a0 - 1185 m_a0_proc_0 - 1185 m_a2_proc_0 - u_a2
       - 970 y_a2_proc_0 >= -2370
 c126: u_a0 + K_a2_a0 - 1185 m_a0_proc_1 - 1185 m_a2_proc_1 - u_a2
       - 865 y_a2_proc_1 >= -2370
 c127: K_a0_a2 + K_a2_a0 = 1
 c128: u_a3 + K_a0_a3 - 1185 m_a0_proc_2 - 1185 m_a3_proc_2 - u_a0
       - 930 y_a0_proc_2 >= -2370
 c129: u_a3 + K_a0_a3 - 1185 m_a0_proc_3 - 1185 m_a3_proc_3 - u_a0
       - 693 y_a0_proc_3 >= -2370
 c130: u_a3 + K_a0_a3 - 1185 m_a0_proc_0 - 1185 m_a3_proc_0 - u_a0
       - 610 y_a0_proc_0 >= -2370
 c131: K_a0_a3 + K_a3_a0 = 1
 c132: u_a0 + K_a3_a0 - 1185 m_a0_proc_2 - 1185 m_a3_proc_2 - u_a3
       - 704 y_a3_proc_2 >= -2370
 c133: u_a0 + K_a3_a0 - 1185 m_a0_proc_3 - 1185 m_a3_proc_3 - u_a3
       - 751 y_a3_proc_3 >= -2370
 c134: u_a0 + K_a3_a0 - 1185 m_a0_proc_0 - 1185 m_a3_proc_0 - u_a3
       - 749 y_a3_proc_0 >= -2370
 c135: K_a0_a3 + K_a3_a0 = 1
 c136: u_a4 + K_a0_a4 - 1185 m_a0_proc_0 - 1185 m_a4_proc_0 - u_a0
       - 610 y_a0_proc_0 >= -2370
 c137: K_a0_a4 + K_a4_a0 = 1
 c138: u_a0 + K_a4_a0 - 1185 m_a0_proc_0 - 1185 m_a4_proc_0 - u_a4
       - 634 y_a4_proc_0 >= -2370
 c139: K_a0_a4 + K_a4_a0 = 1
 c140: u_a5 + K_a0_a5 - 1185 m_a0_proc_2 - 1185 m_a5_proc_2 - u_a0
       - 930 y_a0_proc_2 >= -2370
 c141: u_a5 + K_a0_a5 - 1185 m_a0_proc_0 - 1185 m_a5_proc_0 - u_a0
       - 610 y_a0_proc_0 >= -2370
 c142: u_a5 + K_a0_a5 - 1185 m_a0_proc_1 - 1185 m_a5_proc_1 - u_a0
       - 1185 y_a0_proc_1 >= -2370
 c143: K_a0_a5 + K_a5_a0 = 1
 c144: u_a0 + K_a5_a0 - 1185 m_a0_proc_2 - 1185 m_a5_proc_2 - u_a5
       - 772 y_a5_proc_2 >= -2370
 c145: u_a0 + K_a5_a0 - 1185 m_a0_proc_0 - 1185 m_a5_proc_0 - u_a5
       - 712 y_a5_proc_0 >= -2370
 c146: u_a0 + K_a5_a0 - 1185 m_a0_proc_1 - 1185 m_a5_proc_1 - u_a5
       - 1119 y_a5_proc_1 >= -2370
 c147: K_a0_a5 + K_a5_a0 = 1
 c148: u_a6 + K_a0_a6 - 1185 m_a0_proc_2 - 1185 m_a6_proc_2 - u_a0
       - 930 y_a0_proc_2 >= -2370
 c149: u_a6 + K_a0_a6 - 1185 m_a0_proc_3 - 1185 m_a6_proc_3 - u_a0
       - 693 y_a0_proc_3 >= -2370
 c150: u_a6 + K_a0_a6 - 1185 m_a0_proc_0 - 1185 m_a6_proc_0 - u_a0
       - 610 y_a0_proc_0 >= -2370
 c151: u_a6 + K_a0_a6 - 1185 m_a0_proc_1 - 1185 m_a6_proc_1 - u_a0
       - 1185 y_a0_proc_1 >= -2370
 c152: K_a0_a6 + K_a6_a0 = 1
 c153: u_a0 + K_a6_a0 - 1185 m_a0_proc_2 - 1185 m_a6_proc_2 - u_a6
       - 404 y_a6_proc_2 >= -2370
 c154: u_a0 + K_a6_a0 - 1185 m_a0_proc_3 - 1185 m_a6_proc_3 - u_a6
       - 988 y_a6_proc_3 >= -2370
 c155: u_a0 + K_a6_a0 - 1185 m_a0_proc_0 - 1185 m_a6_proc_0 - u_a6
       - 807 y_a6_proc_0 >= -2370
 c156: u_a0 + K_a6_a0 - 1185 m_a0_proc_1 - 1185 m_a6_proc_1 - u_a6
       - 1022 y_a6_proc_1 >= -2370
 c157: K_a0_a6 + K_a6_a0 = 1
 c158: u_a7 + K_a0_a7 - 1185 m_a0_proc_3 - 1185 m_a7_proc_3 - u_a0
       - 693 y_a0_proc_3 >= -2370
 c159: u_a7 + K_a0_a7 - 1185 m_a0_proc_0 - 1185 m_a7_proc_0 - u_a0
       - 610 y_a0_proc_0 >= -2370
 c160: u_a7 + K_a0_a7 - 1185 m_a0_proc_1 - 1185 m_a7_proc_1 - u_a0
       - 1185 y_a0_proc_1 >= -2370
 c161: K_a0_a7 + K_a7_a0 = 1
 c162: u_a0 + K_a7_a0 - 1185 m_a0_proc_3 - 1185 m_a7_proc_3 - u_a7
       - 693 y_a7_proc_3 >= -2370
 c163: u_a0 + K_a7_a0 - 1185 m_a0_proc_0 - 1185 m_a7_proc_0 - u_a7
       - 987 y_a7_proc_0 >= -2370
 c164: u_a0 + K_a7_a0 - 1185 m_a0_proc_1 - 1185 m_a7_proc_1 - u_a7
       - 742 y_a7_proc_1 >= -2370
 c165: K_a0_a7 + K_a7_a0 = 1
 c166: u_a8 + K_a0_a8 - 1185 m_a0_proc_2 - 1185 m_a8_proc_2 - u_a0
       - 930 y_a0_proc_2 >= -2370
 c167: u_a8 + K_a0_a8 - 1185 m_a0_proc_3 - 1185 m_a8_proc_3 - u_a0
       - 693 y_a0_proc_3 >= -2370
 c168: u_a8 + K_a0_a8 - 1185 m_a0_proc_0 - 1185 m_a8_proc_0 - u_a0
       - 610 y_a0_proc_0 >= -2370
 c169: u_a8 + K_a0_a8 - 1185 m_a0_proc_1 - 1185 m_a8_proc_1 - u_a0
       - 1185 y_a0_proc_1 >= -2370
 c170: K_a0_a8 + K_a8_a0 = 1
 c171: u_a0 + K_a8_a0 - 1185 m_a0_proc_2 - 1185 m_a8_proc_2 - u_a8
       - 1043 y_a8_proc_2 >= -2370
 c172: u_a0 + K_a8_a0 - 1185 m_a0_proc_3 - 1185 m_a8_proc_3 - u_a8
       - 983 y_a8_proc_3 >= -2370
 c173: u_a0 + K_a8_a0 - 1185 m_a0_proc_0 - 1185 m_a8_proc_0 - u_a8
       - 591 y_a8_proc_0 >= -2370
 c174: u_a0 + K_a8_a0 - 1185 m_a0_proc_1 - 1185 m_a8_proc_1 - u_a8
       - 546 y_a8_proc_1 >= -2370
 c175: K_a0_a8 + K_a8_a0 = 1
 c176: u_a9 + K_a0_a9 - 1185 m_a0_proc_2 - 1185 m_a9_proc_2 - u_a0
       - 930 y_a0_proc_2 >= -2370
 c177: u_a9 + K_a0_a9 - 1185 m_a0_proc_3 - 1185 m_a9_proc_3 - u_a0
       - 693 y_a0_proc_3 >= -2370
 c178: u_a9 + K_a0_a9 - 1185 m_a0_proc_1 - 1185 m_a9_proc_1 - u_a0
       - 1185 y_a0_proc_1 >= -2370
 c179: K_a0_a9 + K_a9_a0 = 1
 c180: u_a0 + K_a9_a0 - 1185 m_a0_proc_2 - 1185 m_a9_proc_2 - u_a9
       - 1164 y_a9_proc_2 >= -2370
 c181: u_a0 + K_a9_a0 - 1185 m_a0_proc_3 - 1185 m_a9_proc_3 - u_a9
       - 798 y_a9_proc_3 >= -2370
 c182: u_a0 + K_a9_a0 - 1185 m_a0_proc_1 - 1185 m_a9_proc_1 - u_a9
       - 901 y_a9_proc_1 >= -2370
 c183: K_a0_a9 + K_a9_a0 = 1
 c184: u_a2 + K_a1_a2 - 1185 m_a1_proc_0 - 1185 m_a2_proc_0 - u_a1
       - 1032 y_a1_proc_0 >= -2370
 c185: u_a2 + K_a1_a2 - 1185 m_a1_proc_1 - 1185 m_a2_proc_1 - u_a1
       - 805 y_a1_proc_1 >= -2370
 c186: K_a1_a2 + K_a2_a1 = 1
 c187: u_a1 + K_a2_a1 - 1185 m_a1_proc_0 - 1185 m_a2_proc_0 - u_a2
       - 970 y_a2_proc_0 >= -2370
 c188: u_a1 + K_a2_a1 - 1185 m_a1_proc_1 - 1185 m_a2_proc_1 - u_a2
       - 865 y_a2_proc_1 >= -2370
 c189: K_a1_a2 + K_a2_a1 = 1
 c190: u_a3 + K_a1_a3 - 1185 m_a1_proc_0 - 1185 m_a3_proc_0 - u_a1
       - 1032 y_a1_proc_0 >= -2370
 c191: K_a1_a3 + K_a3_a1 = 1
 c192: u_a1 + K_a3_a1 - 1185 m_a1_proc_0 - 1185 m_a3_proc_0 - u_a3
       - 749 y_a3_proc_0 >= -2370
 c193: K_a1_a3 + K_a3_a1 = 1
 c194: u_a4 + K_a1_a4 - 1185 m_a1_proc_0 - 1185 m_a4_proc_0 - u_a1
       - 1032 y_a1_proc_0 >= -2370
 c195: K_a1_a4 + K_a4_a1 = 1
 c196: u_a1 + K_a4_a1 - 1185 m_a1_proc_0 - 1185 m_a4_proc_0 - u_a4
       - 634 y_a4_proc_0 >= -2370
 c197: K_a1_a4 + K_a4_a1 = 1
 c198: u_a5 + K_a1_a5 - 1185 m_a1_proc_0 - 1185 m_a5_proc_0 - u_a1
       - 1032 y_a1_proc_0 >= -2370
 c199: u_a5 + K_a1_a5 - 1185 m_a1_proc_1 - 1185 m_a5_proc_1 - u_a1
       - 805 y_a1_proc_1 >= -2370
 c200: K_a1_a5 + K_a5_a1 = 1
 c201: u_a1 + K_a5_a1 - 1185 m_a1_proc_0 - 1185 m_a5_proc_0 - u_a5
       - 712 y_a5_proc_0 >= -2370
 c202: u_a1 + K_a5_a1 - 1185 m_a1_proc_1 - 1185 m_a5_proc_1 - u_a5
       - 1119 y_a5_proc_1 >= -2370
 c203: K_a1_a5 + K_a5_a1 = 1
 c204: u_a6 + K_a1_a6 - 1185 m_a1_proc_0 - 1185 m_a6_proc_0 - u_a1
       - 1032 y_a1_proc_0 >= -2370
 c205: u_a6 + K_a1_a6 - 1185 m_a1_proc_1 - 1185 m_a6_proc_1 - u_a1
       - 805 y_a1_proc_1 >= -2370
 c206: K_a1_a6 + K_a6_a1 = 1
 c207: u_a1 + K_a6_a1 - 1185 m_a1_proc_0 - 1185 m_a6_proc_0 - u_a6
       - 807 y_a6_proc_0 >= -2370
 c208: u_a1 + K_a6_a1 - 1185 m_a1_proc_1 - 1185 m_a6_proc_1 - u_a6
       - 1022 y_a6_proc_1 >= -2370
 c209: K_a1_a6 + K_a6_a1 = 1
 c210: u_a7 + K_a1_a7 - 1185 m_a1_proc_0 - 1185 m_a7_proc_0 - u_a1
       - 1032 y_a1_proc_0 >= -2370
 c211: u_a7 + K_a1_a7 - 1185 m_a1_proc_1 - 1185 m_a7_proc_1 - u_a1
       - 805 y_a1_proc_1 >= -2370
 c212: K_a1_a7 + K_a7_a1 = 1
 c213: u_a1 + K_a7_a1 - 1185 m_a1_proc_0 - 1185 m_a7_proc_0 - u_a7
       - 987 y_a7_proc_0 >= -2370
 c214: u_a1 + K_a7_a1 - 1185 m_a1_proc_1 - 1185 m_a7_proc_1 - u_a7
       - 742 y_a7_proc_1 >= -2370
 c215: K_a1_a7 + K_a7_a1 = 1
 c216: u_a8 + K_a1_a8 - 1185 m_a1_proc_0 - 1185 m_a8_proc_0 - u_a1
       - 1032 y_a1_proc_0 >= -2370
 c217: u_a8 + K_a1_a8 - 1185 m_a1_proc_1 - 1185 m_a8_proc_1 - u_a1
       - 805 y_a1_proc_1 >= -2370
 c218: K_a1_a8 + K_a8_a1 = 1
 c219: u_a1 + K_a8_a1 - 1185 m_a1_proc_0 - 1185 m_a8_proc_0 - u_a8
       - 591 y_a8_proc_0 >= -2370
 c220: u_a1 + K_a8_a1 - 1185 m_a1_proc_1 - 1185 m_a8_proc_1 - u_a8
       - 546 y_a8_proc_1 >= -2370
 c221: K_a1_a8 + K_a8_a1 = 1
 c222: u_a9 + K_a1_a9 - 1185 m_a1_proc_1 - 1185 m_a9_proc_1 - u_a1
       - 805 y_a1_proc_1 >= -2370
 c223: K_a1_a9 + K_a9_a1 = 1
 c224: u_a1 + K_a9_a1 - 1185 m_a1_proc_1 - 1185 m_a9_proc_1 - u_a9
       - 901 y_a9_proc_1 >= -2370
 c225: K_a1_a9 + K_a9_a1 = 1
 c226: u_a3 + K_a2_a3 - 1185 m_a2_proc_2 - 1185 m_a3_proc_2 - u_a2
       - 343 y_a2_proc_2 >= -2370
 c227: u_a3 + K_a2_a3 - 1185 m_a2_proc_3 - 1185 m_a3_proc_3 - u_a2
       - 1117 y_a2_proc_3 >= -2370
 c228: u_a3 + K_a2_a3 - 1185 m_a2_proc_0 - 1185 m_a3_proc_0 - u_a2
       - 970 y_a2_proc_0 >= -2370
 c229: K_a2_a3 + K_a3_a2 = 1
 c230: u_a2 + K_a3_a2 - 1185 m_a2_proc_2 - 1185 m_a3_proc_2 - u_a3
       - 704 y_a3_proc_2 >= -2370
 c231: u_a2 + K_a3_a2 - 1185 m_a2_proc_3 - 1185 m_a3_proc_3 - u_a3
       - 751 y_a3_proc_3 >= -2370
 c232: u_a2 + K_a3_a2 - 1185 m_a2_proc_0 - 1185 m_a3_proc_0 - u_a3
       - 749 y_a3_proc_0 >= -2370
 c233: K_a2_a3 + K_a3_a2 = 1
 c234: u_a4 + K_a2_a4 - 1185 m_a2_proc_0 - 1185 m_a4_proc_0 - u_a2
       - 970 y_a2_proc_0 >= -2370
 c235: K_a2_a4 + K_a4_a2 = 1
 c236: u_a2 + K_a4_a2 - 1185 m_a2_proc_0 - 1185 m_a4_proc_0 - u_a4
       - 634 y_a4_proc_0 >= -2370
 c237: K_a2_a4 + K_a4_a2 = 1
 c238: u_a5 + K_a2_a5 - 1185 m_a2_proc_2 - 1185 m_a5_proc_2 - u_a2
       - 343 y_a2_proc_2 >= -2370
 c239: u_a5 + K_a2_a5 - 1185 m_a2_proc_0 - 1185 m_a5_proc_0 - u_a2
       - 970 y_a2_proc_0 >= -2370
 c240: u_a5 + K_a2_a5 - 1185 m_a2_proc_1 - 1185 m_a5_proc_1 - u_a2
       - 865 y_a2_proc_1 >= -2370
 c241: K_a2_a5 + K_a5_a2 = 1
 c242: u_a2 + K_a5_a2 - 1185 m_a2_proc_2 - 1185 m_a5_proc_2 - u_a5
       - 772 y_a5_proc_2 >= -2370
 c243: u_a2 + K_a5_a2 - 1185 m_a2_proc_0 - 1185 m_a5_proc_0 - u_a5
       - 712 y_a5_proc_0 >= -2370
 c244: u_a2 + K_a5_a2 - 1185 m_a2_proc_1 - 1185 m_a5_proc_1 - u_a5
       - 1119 y_a5_proc_1 >= -2370
 c245: K_a2_a5 + K_a5_a2 = 1
 c246: u_a6 + K_a2_a6 - 1185 m_a2_proc_2 - 1185 m_a6_proc_2 - u_a2
       - 343 y_a2_proc_2 >= -2370
 c247: u_a6 + K_a2_a6 - 1185 m_a2_proc_3 - 1185 m_a6_proc_3 - u_a2
       - 1117 y_a2_proc_3 >= -2370
 c248: u_a6 + K_a2_a6 - 1185 m_a2_proc_0 - 1185 m_a6_proc_0 - u_a2
       - 970 y_a2_proc_0 >= -2370
 c249: u_a6 + K_a2_a6 - 1185 m_a2_proc_1 - 1185 m_a6_proc_1 - u_a2
       - 865 y_a2_proc_1 >= -2370
 c250: K_a2_a6 + K_a6_a2 = 1
 c251: u_a2 + K_a6_a2 - 1185 m_a2_proc_2 - 1185 m_a6_proc_2 - u_a6
       - 404 y_a6_proc_2 >= -2370
 c252: u_a2 + K_a6_a2 - 1185 m_a2_proc_3 - 1185 m_a6_proc_3 - u_a6
       - 988 y_a6_proc_3 >= -2370
 c253: u_a2 + K_a6_a2 - 1185 m_a2_proc_0 - 1185 m_a6_proc_0 - u_a6
       - 807 y_a6_proc_0 >= -2370
 c254: u_a2 + K_a6_a2 - 1185 m_a2_proc_1 - 1185 m_a6_proc_1 - u_a6
       - 1022 y_a6_proc_1 >= -2370
 c255: K_a2_a6 + K_a6_a2 = 1
 c256: u_a7 + K_a2_a7 - 1185 m_a2_proc_3 - 1185 m_a7_proc_3 - u_a2
       - 1117 y_a2_proc_3 >= -2370
 c257: u_a7 + K_a2_a7 - 1185 m_a2_proc_0 - 1185 m_a7_proc_0 - u_a2
       - 970 y_a2_proc_0 >= -2370
 c258: u_a7 + K_a2_a7 - 1185 m_a2_proc_1 - 1185 m_a7_proc_1 - u_a2
       - 865 y_a2_proc_1 >= -2370
 c259: K_a2_a7 + K_a7_a2 = 1
 c260: u_a2 + K_a7_a2 - 1185 m_a2_proc_3 - 1185 m_a7_proc_3 - u_a7
       - 693 y_a7_proc_3 >= -2370
 c261: u_a2 + K_a7_a2 - 1185 m_a2_proc_0 - 1185 m_a7_proc_0 - u_a7
       - 987 y_a7_proc_0 >= -2370
 c262: u_a2 + K_a7_a2 - 1185 m_a2_proc_1 - 1185 m_a7_proc_1 - u_a7
       - 742 y_a7_proc_1 >= -2370
 c263: K_a2_a7 + K_a7_a2 = 1
 c264: u_a8 + K_a2_a8 - 1185 m_a2_proc_2 - 1185 m_a8_proc_2 - u_a2
       - 343 y_a2_proc_2 >= -2370
 c265: u_a8 + K_a2_a8 - 1185 m_a2_proc_3 - 1185 m_a8_proc_3 - u_a2
       - 1117 y_a2_proc_3 >= -2370
 c266: u_a8 + K_a2_a8 - 1185 m_a2_proc_0 - 1185 m_a8_proc_0 - u_a2
       - 970 y_a2_proc_0 >= -2370
 c267: u_a8 + K_a2_a8 - 1185 m_a2_proc_1 - 1185 m_a8_proc_1 - u_a2
       - 865 y_a2_proc_1 >= -2370
 c268: K_a2_a8 + K_a8_a2 = 1
 c269: u_a2 + K_a8_a2 - 1185 m_a2_proc_2 - 1185 m_a8_proc_2 - u_a8
       - 1043 y_a8_proc_2 >= -2370
 c270: u_a2 + K_a8_a2 - 1185 m_a2_proc_3 - 1185 m_a8_proc_3 - u_a8
       - 983 y_a8_proc_3 >= -2370
 c271: u_a2 + K_a8_a2 - 1185 m_a2_proc_0 - 1185 m_a8_proc_0 - u_a8
       - 591 y_a8_proc_0 >= -2370
 c272: u_a2 + K_a8_a2 - 1185 m_a2_proc_1 - 1185 m_a8_proc_1 - u_a8
       - 546 y_a8_proc_1 >= -2370
 c273: K_a2_a8 + K_a8_a2 = 1
 c274: u_a9 + K_a2_a9 - 1185 m_a2_proc_2 - 1185 m_a9_proc_2 - u_a2
       - 343 y_a2_proc_2 >= -2370
 c275: u_a9 + K_a2_a9 - 1185 m_a2_proc_3 - 1185 m_a9_proc_3 - u_a2
       - 1117 y_a2_proc_3 >= -2370
 c276: u_a9 + K_a2_a9 - 1185 m_a2_proc_1 - 1185 m_a9_proc_1 - u_a2
       - 865 y_a2_proc_1 >= -2370
 c277: K_a2_a9 + K_a9_a2 = 1
 c278: u_a2 + K_a9_a2 - 1185 m_a2_proc_2 - 1185 m_a9_proc_2 - u_a9
       - 1164 y_a9_proc_2 >= -2370
 c279: u_a2 + K_a9_a2 - 1185 m_a2_proc_3 - 1185 m_a9_proc_3 - u_a9
       - 798 y_a9_proc_3 >= -2370
 c280: u_a2 + K_a9_a2 - 1185 m_a2_proc_1 - 1185 m_a9_proc_1 - u_a9
       - 901 y_a9_proc_1 >= -2370
 c281: K_a2_a9 + K_a9_a2 = 1
 c282: u_a4 + K_a3_a4 - 1185 m_a3_proc_0 - 1185 m_a4_proc_0 - u_a3
       - 749 y_a3_proc_0 >= -2370
 c283: K_a3_a4 + K_a4_a3 = 1
 c284: u_a3 + K_a4_a3 - 1185 m_a3_proc_0 - 1185 m_a4_proc_0 - u_a4
       - 634 y_a4_proc_0 >= -2370
 c285: K_a3_a4 + K_a4_a3 = 1
 c286: u_a5 + K_a3_a5 - 1185 m_a3_proc_2 - 1185 m_a5_proc_2 - u_a3
       - 704 y_a3_proc_2 >= -2370
 c287: u_a5 + K_a3_a5 - 1185 m_a3_proc_0 - 1185 m_a5_proc_0 - u_a3
       - 749 y_a3_proc_0 >= -2370
 c288: K_a3_a5 + K_a5_a3 = 1
 c289: u_a3 + K_a5_a3 - 1185 m_a3_proc_2 - 1185 m_a5_proc_2 - u_a5
       - 772 y_a5_proc_2 >= -2370
 c290: u_a3 + K_a5_a3 - 1185 m_a3_proc_0 - 1185 m_a5_proc_0 - u_a5
       - 712 y_a5_proc_0 >= -2370
 c291: K_a3_a5 + K_a5_a3 = 1
 c292: u_a6 + K_a3_a6 - 1185 m_a3_proc_2 - 1185 m_a6_proc_2 - u_a3
       - 704 y_a3_proc_2 >= -2370
 c293: u_a6 + K_a3_a6 - 1185 m_a3_proc_3 - 1185 m_a6_proc_3 - u_a3
       - 751 y_a3_proc_3 >= -2370
 c294: u_a6 + K_a3_a6 - 1185 m_a3_proc_0 - 1185 m_a6_proc_0 - u_a3
       - 749 y_a3_proc_0 >= -2370
 c295: K_a3_a6 + K_a6_a3 = 1
 c296: u_a3 + K_a6_a3 - 1185 m_a3_proc_2 - 1185 m_a6_proc_2 - u_a6
       - 404 y_a6_proc_2 >= -2370
 c297: u_a3 + K_a6_a3 - 1185 m_a3_proc_3 - 1185 m_a6_proc_3 - u_a6
       - 988 y_a6_proc_3 >= -2370
 c298: u_a3 + K_a6_a3 - 1185 m_a3_proc_0 - 1185 m_a6_proc_0 - u_a6
       - 807 y_a6_proc_0 >= -2370
 c299: K_a3_a6 + K_a6_a3 = 1
 c300: u_a7 + K_a3_a7 - 1185 m_a3_proc_3 - 1185 m_a7_proc_3 - u_a3
       - 751 y_a3_proc_3 >= -2370
 c301: u_a7 + K_a3_a7 - 1185 m_a3_proc_0 - 1185 m_a7_proc_0 - u_a3
       - 749 y_a3_proc_0 >= -2370
 c302: K_a3_a7 + K_a7_a3 = 1
 c303: u_a3 + K_a7_a3 - 1185 m_a3_proc_3 - 1185 m_a7_proc_3 - u_a7
       - 693 y_a7_proc_3 >= -2370
 c304: u_a3 + K_a7_a3 - 1185 m_a3_proc_0 - 1185 m_a7_proc_0 - u_a7
       - 987 y_a7_proc_0 >= -2370
 c305: K_a3_a7 + K_a7_a3 = 1
 c306: u_a8 + K_a3_a8 - 1185 m_a3_proc_2 - 1185 m_a8_proc_2 - u_a3
       - 704 y_a3_proc_2 >= -2370
 c307: u_a8 + K_a3_a8 - 1185 m_a3_proc_3 - 1185 m_a8_proc_3 - u_a3
       - 751 y_a3_proc_3 >= -2370
 c308: u_a8 + K_a3_a8 - 1185 m_a3_proc_0 - 1185 m_a8_proc_0 - u_a3
       - 749 y_a3_proc_0 >= -2370
 c309: K_a3_a8 + K_a8_a3 = 1
 c310: u_a3 + K_a8_a3 - 1185 m_a3_proc_2 - 1185 m_a8_proc_2 - u_a8
       - 1043 y_a8_proc_2 >= -2370
 c311: u_a3 + K_a8_a3 - 1185 m_a3_proc_3 - 1185 m_a8_proc_3 - u_a8
       - 983 y_a8_proc_3 >= -2370
 c312: u_a3 + K_a8_a3 - 1185 m_a3_proc_0 - 1185 m_a8_proc_0 - u_a8
       - 591 y_a8_proc_0 >= -2370
 c313: K_a3_a8 + K_a8_a3 = 1
 c314: u_a9 + K_a3_a9 - 1185 m_a3_proc_2 - 1185 m_a9_proc_2 - u_a3
       - 704 y_a3_proc_2 >= -2370
 c315: u_a9 + K_a3_a9 - 1185 m_a3_proc_3 - 1185 m_a9_proc_3 - u_a3
       - 751 y_a3_proc_3 >= -2370
 c316: K_a3_a9 + K_a9_a3 = 1
 c317: u_a3 + K_a9_a3 - 1185 m_a3_proc_2 - 1185 m_a9_proc_2 - u_a9
       - 1164 y_a9_proc_2 >= -2370
 c318: u_a3 + K_a9_a3 - 1185 m_a3_proc_3 - 1185 m_a9_proc_3 - u_a9
       - 798 y_a9_proc_3 >= -2370
 c319: K_a3_a9 + K_a9_a3 = 1
 c320: u_a5 + K_a4_a5 - 1185 m_a4_proc_0 - 1185 m_a5_proc_0 - u_a4
       - 634 y_a4_proc_0 >= -2370
 c321: K_a4_a5 + K_a5_a4 = 1
 c322: u_a4 + K_a5_a4 - 1185 m_a4_proc_0 - 1185 m_a5_proc_0 - u_a5
       - 712 y_a5_proc_0 >= -2370
 c323: K_a4_a5 + K_a5_a4 = 1
 c324: u_a6 + K_a4_a6 - 1185 m_a4_proc_0 - 1185 m_a6_proc_0 - u_a4
       - 634 y_a4_proc_0 >= -2370
 c325: K_a4_a6 + K_a6_a4 = 1
 c326: u_a4 + K_a6_a4 - 1185 m_a4_proc_0 - 1185 m_a6_proc_0 - u_a6
       - 807 y_a6_proc_0 >= -2370
 c327: K_a4_a6 + K_a6_a4 = 1
 c328: u_a7 + K_a4_a7 - 1185 m_a4_proc_0 - 1185 m_a7_proc_0 - u_a4
       - 634 y_a4_proc_0 >= -2370
 c329: K_a4_a7 + K_a7_a4 = 1
 c330: u_a4 + K_a7_a4 - 1185 m_a4_proc_0 - 1185 m_a7_proc_0 - u_a7
       - 987 y_a7_proc_0 >= -2370
 c331: K_a4_a7 + K_a7_a4 = 1
 c332: u_a8 + K_a4_a8 - 1185 m_a4_proc_0 - 1185 m_a8_proc_0 - u_a4
       - 634 y_a4_proc_0 >= -2370
 c333: K_a4_a8 + K_a8_a4 = 1
 c334: u_a4 + K_a8_a4 - 1185 m_a4_proc_0 - 1185 m_a8_proc_0 - u_a8
       - 591 y_a8_proc_0 >= -2370
 c335: K_a4_a8 + K_a8_a4 = 1
 c336: u_a6 + K_a5_a6 - 1185 m_a5_proc_2 - 1185 m_a6_proc_2 - u_a5
       - 772 y_a5_proc_2 >= -2370
 c337: u_a6 + K_a5_a6 - 1185 m_a5_proc_0 - 1185 m_a6_proc_0 - u_a5
       - 712 y_a5_proc_0 >= -2370
 c338: u_a6 + K_a5_a6 - 1185 m_a5_proc_1 - 1185 m_a6_proc_1 - u_a5
       - 1119 y_a5_proc_1 >= -2370
 c339: K_a5_a6 + K_a6_a5 = 1
 c340: u_a5 + K_a6_a5 - 1185 m_a5_proc_2 - 1185 m_a6_proc_2 - u_a6
       - 404 y_a6_proc_2 >= -2370
 c341: u_a5 + K_a6_a5 - 1185 m_a5_proc_0 - 1185 m_a6_proc_0 - u_a6
       - 807 y_a6_proc_0 >= -2370
 c342: u_a5 + K_a6_a5 - 1185 m_a5_proc_1 - 1185 m_a6_proc_1 - u_a6
       - 1022 y_a6_proc_1 >= -2370
 c343: K_a5_a6 + K_a6_a5 = 1
 c344: u_a7 + K_a5_a7 - 1185 m_a5_proc_0 - 1185 m_a7_proc_0 - u_a5
       - 712 y_a5_proc_0 >= -2370
 c345: u_a7 + K_a5_a7 - 1185 m_a5_proc_1 - 1185 m_a7_proc_1 - u_a5
       - 1119 y_a5_proc_1 >= -2370
 c346: K_a5_a7 + K_a7_a5 = 1
 c347: u_a5 + K_a7_a5 - 1185 m_a5_proc_0 - 1185 m_a7_proc_0 - u_a7
       - 987 y_a7_proc_0 >= -2370
 c348: u_a5 + K_a7_a5 - 1185 m_a5_proc_1 - 1185 m_a7_proc_1 - u_a7
       - 742 y_a7_proc_1 >= -2370
 c349: K_a5_a7 + K_a7_a5 = 1
 c350: u_a8 + K_a5_a8 - 1185 m_a5_proc_2 - 1185 m_a8_proc_2 - u_a5
       - 772 y_a5_proc_2 >= -2370
 c351: u_a8 + K_a5_a8 - 1185 m_a5_proc_0 - 1185 m_a8_proc_0 - u_a5
       - 712 y_a5_proc_0 >= -2370
 c352: u_a8 + K_a5_a8 - 1185 m_a5_proc_1 - 1185 m_a8_proc_1 - u_a5
       - 1119 y_a5_proc_1 >= -2370
 c353: K_a5_a8 + K_a8_a5 = 1
 c354: u_a5 + K_a8_a5 - 1185 m_a5_proc_2 - 1185 m_a8_proc_2 - u_a8
       - 1043 y_a8_proc_2 >= -2370
 c355: u_a5 + K_a8_a5 - 1185 m_a5_proc_0 - 1185 m_a8_proc_0 - u_a8
       - 591 y_a8_proc_0 >= -2370
 c356: u_a5 + K_a8_a5 - 1185 m_a5_proc_1 - 1185 m_a8_proc_1 - u_a8
       - 546 y_a8_proc_1 >= -2370
 c357: K_a5_a8 + K_a8_a5 = 1
 c358: u_a9 + K_a5_a9 - 1185 m_a5_proc_2 - 1185 m_a9_proc_2 - u_a5
       - 772 y_a5_proc_2 >= -2370
 c359: u_a9 + K_a5_a9 - 1185 m_a5_proc_1 - 1185 m_a9_proc_1 - u_a5
       - 1119 y_a5_proc_1 >= -2370
 c360: K_a5_a9 + K_a9_a5 = 1
 c361: u_a5 + K_a9_a5 - 1185 m_a5_proc_2 - 1185 m_a9_proc_2 - u_a9
       - 1164 y_a9_proc_2 >= -2370
 c362: u_a5 + K_a9_a5 - 1185 m_a5_proc_1 - 1185 m_a9_proc_1 - u_a9
       - 901 y_a9_proc_1 >= -2370
 c363: K_a5_a9 + K_a9_a5 = 1
 c364: u_a7 + K_a6_a7 - 1185 m_a6_proc_3 - 1185 m_a7_proc_3 - u_a6
       - 988 y_a6_proc_3 >= -2370
 c365: u_a7 + K_a6_a7 - 1185 m_a6_proc_0 - 1185 m_a7_proc_0 - u_a6
       - 807 y_a6_proc_0 >= -2370
 c366: u_a7 + K_a6_a7 - 1185 m_a6_proc_1 - 1185 m_a7_proc_1 - u_a6
       - 1022 y_a6_proc_1 >= -2370
 c367: K_a6_a7 + K_a7_a6 = 1
 c368: u_a6 + K_a7_a6 - 1185 m_a6_proc_3 - 1185 m_a7_proc_3 - u_a7
       - 693 y_a7_proc_3 >= -2370
 c369: u_a6 + K_a7_a6 - 1185 m_a6_proc_0 - 1185 m_a7_proc_0 - u_a7
       - 987 y_a7_proc_0 >= -2370
 c370: u_a6 + K_a7_a6 - 1185 m_a6_proc_1 - 1185 m_a7_proc_1 - u_a7
       - 742 y_a7_proc_1 >= -2370
 c371: K_a6_a7 + K_a7_a6 = 1
 c372: u_a8 + K_a6_a8 - 1185 m_a6_proc_2 - 1185 m_a8_proc_2 - u_a6
       - 404 y_a6_proc_2 >= -2370
 c373: u_a8 + K_a6_a8 - 1185 m_a6_proc_3 - 1185 m_a8_proc_3 - u_a6
       - 988 y_a6_proc_3 >= -2370
 c374: u_a8 + K_a6_a8 - 1185 m_a6_proc_0 - 1185 m_a8_proc_0 - u_a6
       - 807 y_a6_proc_0 >= -2370
 c375: u_a8 + K_a6_a8 - 1185 m_a6_proc_1 - 1185 m_a8_proc_1 - u_a6
       - 1022 y_a6_proc_1 >= -2370
 c376: K_a6_a8 + K_a8_a6 = 1
 c377: u_a6 + K_a8_a6 - 1185 m_a6_proc_2 - 1185 m_a8_proc_2 - u_a8
       - 1043 y_a8_proc_2 >= -2370
 c378: u_a6 + K_a8_a6 - 1185 m_a6_proc_3 - 1185 m_a8_proc_3 - u_a8
       - 983 y_a8_proc_3 >= -2370
 c379: u_a6 + K_a8_a6 - 1185 m_a6_proc_0 - 1185 m_a8_proc_0 - u_a8
       - 591 y_a8_proc_0 >= -2370
 c380: u_a6 + K_a8_a6 - 1185 m_a6_proc_1 - 1185 m_a8_proc_1 - u_a8
       - 546 y_a8_proc_1 >= -2370
 c381: K_a6_a8 + K_a8_a6 = 1
 c382: u_a9 + K_a6_a9 - 1185 m_a6_proc_2 - 1185 m_a9_proc_2 - u_a6
       - 404 y_a6_proc_2 >= -2370
 c383: u_a9 + K_a6_a9 - 1185 m_a6_proc_3 - 1185 m_a9_proc_3 - u_a6
       - 988 y_a6_proc_3 >= -2370
 c384: u_a9 + K_a6_a9 - 1185 m_a6_proc_1 - 1185 m_a9_proc_1 - u_a6
       - 1022 y_a6_proc_1 >= -2370
 c385: K_a6_a9 + K_a9_a6 = 1
 c386: u_a6 + K_a9_a6 - 1185 m_a6_proc_2 - 1185 m_a9_proc_2 - u_a9
       - 1164 y_a9_proc_2 >= -2370
 c387: u_a6 + K_a9_a6 - 1185 m_a6_proc_3 - 1185 m_a9_proc_3 - u_a9
       - 798 y_a9_proc_3 >= -2370
 c388: u_a6 + K_a9_a6 - 1185 m_a6_proc_1 - 1185 m_a9_proc_1 - u_a9
       - 901 y_a9_proc_1 >= -2370
 c389: K_a6_a9 + K_a9_a6 = 1
 c390: u_a8 + K_a7_a8 - 1185 m_a7_proc_3 - 1185 m_a8_proc_3 - u_a7
       - 693 y_a7_proc_3 >= -2370
 c391: u_a8 + K_a7_a8 - 1185 m_a7_proc_0 - 1185 m_a8_proc_0 - u_a7
       - 987 y_a7_proc_0 >= -2370
 c392: u_a8 + K_a7_a8 - 1185 m_a7_proc_1 - 1185 m_a8_proc_1 - u_a7
       - 742 y_a7_proc_1 >= -2370
 c393: K_a7_a8 + K_a8_a7 = 1
 c394: u_a7 + K_a8_a7 - 1185 m_a7_proc_3 - 1185 m_a8_proc_3 - u_a8
       - 983 y_a8_proc_3 >= -2370
 c395: u_a7 + K_a8_a7 - 1185 m_a7_proc_0 - 1185 m_a8_proc_0 - u_a8
       - 591 y_a8_proc_0 >= -2370
 c396: u_a7 + K_a8_a7 - 1185 m_a7_proc_1 - 1185 m_a8_proc_1 - u_a8
       - 546 y_a8_proc_1 >= -2370
 c397: K_a7_a8 + K_a8_a7 = 1
 c398: u_a9 + K_a7_a9 - 1185 m_a7_proc_3 - 1185 m_a9_proc_3 - u_a7
       - 693 y_a7_proc_3 >= -2370
 c399: u_a9 + K_a7_a9 - 1185 m_a7_proc_1 - 1185 m_a9_proc_1 - u_a7
       - 742 y_a7_proc_1 >= -2370
 c400: K_a7_a9 + K_a9_a7 = 1
 c401: u_a7 + K_a9_a7 - 1185 m_a7_proc_3 - 1185 m_a9_proc_3 - u_a9
       - 798 y_a9_proc_3 >= -2370
 c402: u_a7 + K_a9_a7 - 1185 m_a7_proc_1 - 1185 m_a9_proc_1 - u_a9
       - 901 y_a9_proc_1 >= -2370
 c403: K_a7_a9 + K_a9_a7 = 1
 c404: u_a9 + K_a8_a9 - 1185 m_a8_proc_2 - 1185 m_a9_proc_2 - u_a8
       - 1043 y_a8_proc_2 >= -2370
 c405: u_a9 + K_a8_a9 - 1185 m_a8_proc_3 - 1185 m_a9_proc_3 - u_a8
       - 983 y_a8_proc_3 >= -2370
 c406: u_a9 + K_a8_a9 - 1185 m_a8_proc_1 - 1185 m_a9_proc_1 - u_a8
       - 546 y_a8_proc_1 >= -2370
 c407: K_a8_a9 + K_a9_a8 = 1
 c408: u_a8 + K_a9_a8 - 1185 m_a8_proc_2 - 1185 m_a9_proc_2 - u_a9
       - 1164 y_a9_proc_2 >= -2370
 c409: u_a8 + K_a9_a8 - 1185 m_a8_proc_3 - 1185 m_a9_proc_3 - u_a9
       - 798 y_a9_proc_3 >= -2370
 c410: u_a8 + K_a9_a8 - 1185 m_a8_proc_1 - 1185 m_a9_proc_1 - u_a9
       - 901 y_a9_proc_1 >= -2370
 c411: K_a8_a9 + K_a9_a8 = 1

Bounds
 -14 <= K_a0_a1 <= 14
 -14 <= K_a0_a2 <= 14
 -14 <= K_a0_a3 <= 14
 -14 <= K_a0_a4 <= 14
 -14 <= K_a0_a5 <= 14
 -14 <= K_a0_a6 <= 14
 -14 <= K_a0_a7 <= 14
 -14 <= K_a0_a8 <= 14
 -14 <= K_a0_a9 <= 14
 -14 <= K_a1_a0 <= 14
 -14 <= K_a1_a2 <= 14
 -14 <= K_a1_a3 <= 14
 -14 <= K_a1_a4 <= 14
 -14 <= K_a1_a5 <= 14
 -14 <= K_a1_a6 <= 14
 -14 <= K_a1_a7 <= 14
 -14 <= K_a1_a8 <= 14
 -14 <= K_a1_a9 <= 14
 -14 <= K_a2_a0 <= 14
 -14 <= K_a2_a1 <= 14
 -14 <= K_a2_a3 <= 14
 -14 <= K_a2_a4 <= 14
 -14 <= K_a2_a5 <= 14
 -14 <= K_a2_a6 <= 14
 -14 <= K_a2_a7 <= 14
 -14 <= K_a2_a8 <= 14
 -14 <= K_a2_a9 <= 14
 -14 <= K_a3_a0 <= 14
 -14 <= K_a3_a1 <= 14
 -14 <= K_a3_a2 <= 14
 -14 <= K_a3_a4 <= 14
 -14 <= K_a3_a5 <= 14
 -14 <= K_a3_a6 <= 14
 -14 <= K_a3_a7 <= 14
 -14 <= K_a3_a8 <= 14
 -14 <= K_a3_a9 <= 14
 -14 <= K_a4_a0 <= 14
 -14 <= K_a4_a1 <= 14
 -14 <= K_a4_a2 <= 14
 -14 <= K_a4_a3 <= 14
 -14 <= K_a4_a5 <= 14
 -14 <= K_a4_a6 <= 14
 -14 <= K_a4_a7 <= 14
 -14 <= K_a4_a8 <= 14
 -14 <= K_a4_a9 <= 14
 -14 <= K_a5_a0 <= 14
 -14 <= K_a5_a1 <= 14
 -14 <= K_a5_a2 <= 14
 -14 <= K_a5_a3 <= 14
 -14 <= K_a5_a4 <= 14
 -14 <= K_a5_a6 <= 14
 -14 <= K_a5_a7 <= 14
 -14 <= K_a5_a8 <= 14
 -14 <= K_a5_a9 <= 14
 -14 <= K_a6_a0 <= 14
 -14 <= K_a6_a1 <= 14
 -14 <= K_a6_a2 <= 14
 -14 <= K_a6_a3 <= 14
 -14 <= K_a6_a4 <= 14
 -14 <= K_a6_a5 <= 14
 -14 <= K_a6_a7 <= 14
 -14 <= K_a6_a8 <= 14
 -14 <= K_a6_a9 <= 14
 -14 <= K_a7_a0 <= 14
 -14 <= K_a7_a1 <= 14
 -14 <= K_a7_a2 <= 14
 -14 <= K_a7_a3 <= 14
 -14 <= K_a7_a4 <= 14
 -14 <= K_a7_a5 <= 14
 -14 <= K_a7_a6 <= 14
 -14 <= K_a7_a8 <= 14
 -14 <= K_a7_a9 <= 14
 -14 <= K_a8_a0 <= 14
 -14 <= K_a8_a1 <= 14
 -14 <= K_a8_a2 <= 14
 -14 <= K_a8_a3 <= 14
 -14 <= K_a8_a4 <= 14
 -14 <= K_a8_a5 <= 14
 -14 <= K_a8_a6 <= 14
 -14 <= K_a8_a7 <= 14
 -14 <= K_a8_a9 <= 14
 -14 <= K_a9_a0 <= 14
 -14 <= K_a9_a1 <= 14
 -14 <= K_a9_a2 <= 14
 -14 <= K_a9_a3 <= 14
 -14 <= K_a9_a4 <= 14
 -14 <= K_a9_a5 <= 14
 -14 <= K_a9_a6 <= 14
 -14 <= K_a9_a7 <= 14
 -14 <= K_a9_a8 <= 14
 0 <= m_a0_proc_0 <= 1
 0 <= m_a0_proc_1 <= 1
 0 <= m_a0_proc_2 <= 1
 0 <= m_a0_proc_3 <= 1
 0 <= m_a1_proc_0 <= 1
 0 <= m_a1_proc_1 <= 1
 0 <= m_a2_proc_0 <= 1
 0 <= m_a2_proc_1 <= 1
 0 <= m_a2_proc_2 <= 1
 0 <= m_a2_proc_3 <= 1
 0 <= m_a3_proc_0 <= 1
 0 <= m_a3_proc_2 <= 1
 0 <= m_a3_proc_3 <= 1
 0 <= m_a4_proc_0 <= 1
 0 <= m_a5_proc_0 <= 1
 0 <= m_a5_proc_1 <= 1
 0 <= m_a5_proc_2 <= 1
 0 <= m_a6_proc_0 <= 1
 0 <= m_a6_proc_1 <= 1
 0 <= m_a6_proc_2 <= 1
 0 <= m_a6_proc_3 <= 1
 0 <= m_a7_proc_0 <= 1
 0 <= m_a7_proc_1 <= 1
 0 <= m_a7_proc_3 <= 1
 0 <= m_a8_proc_0 <= 1
 0 <= m_a8_proc_1 <= 1
 0 <= m_a8_proc_2 <= 1
 0 <= m_a8_proc_3 <= 1
 0 <= m_a9_proc_1 <= 1
 0 <= m_a9_proc_2 <= 1
 0 <= m_a9_proc_3 <= 1

Binaries
 m_a0_proc_0 m_a0_proc_1 m_a0_proc_2 m_a0_proc_3 m_a1_proc_0 m_a1_proc_1
 m_a2_proc_0 m_a2_proc_1 m_a2_proc_2 m_a2_proc_3 m_a3_proc_0 m_a3_proc_2
 m_a3_proc_3 m_a4_proc_0 m_a5_proc_0 m_a5_proc_1 m_a5_proc_2 m_a6_proc_0
 m_a6_proc_1 m_a6_proc_2 m_a6_proc_3 m_a7_proc_0 m_a7_proc_1 m_a7_proc_3
 m_a8_proc_0 m_a8_proc_1 m_a8_proc_2 m_a8_proc_3 m_a9_proc_1 m_a9_proc_2
 m_a9_proc_3

Generals
 K_a0_a1 K_a0_a2 K_a0_a3 K_a0_a4 K_a0_a5 K_a0_a6 K_a0_a7 K_a0_a8 K_a0_a9 K_a1_a0
 K_a1_a2 K_a1_a3 K_a1_a4 K_a1_a5 K_a1_a6 K_a1_a7 K_a1_a8 K_a1_a9 K_a2_a0 K_a2_a1
 K_a2_a3 K_a2_a4 K_a2_a5 K_a2_a6 K_a2_a7 K_a2_a8 K_a2_a9 K_a3_a0 K_a3_a1 K_a3_a2
 K_a3_a4 K_a3_a5 K_a3_a6 K_a3_a7 K_a3_a8 K_a3_a9 K_a4_a0 K_a4_a1 K_a4_a2 K_a4_a3
 K_a4_a5 K_a4_a6 K_a4_a7 K_a4_a8 K_a4_a9 K_a5_a0 K_a5_a1 K_a5_a2 K_a5_a3 K_a5_a4
 K_a5_a6 K_a5_a7 K_a5_a8 K_a5_a9 K_a6_a0 K_a6_a1 K_a6_a2 K_a6_a3 K_a6_a4 K_a6_a5
 K_a6_a7 K_a6_a8 K_a6_a9 K_a7_a0 K_a7_a1 K_a7_a2 K_a7_a3 K_a7_a4 K_a7_a5 K_a7_a6
 K_a7_a8 K_a7_a9 K_a8_a0 K_a8_a1 K_a8_a2 K_a8_a3 K_a8_a4 K_a8_a5 K_a8_a6 K_a8_a7
 K_a8_a9 K_a9_a0 K_a9_a1 K_a9_a2 K_a9_a3 K_a9_a4 K_a9_a5 K_a9_a6 K_a9_a7 K_a9_a8
End
