benchmark/results/graph__10-1000-0.10-04_14/graph__10-1000-0.10-04_14_QuintonOs_Monolithic.txt
solution for: Quinton Bounded Monolithic
objective: 0.00036324
status: OPTIMAL_SOLUTION(2)
u_a0=0.230
u_a1=0.452
u_a2=1.000
u_a3=0.744
u_a5=0.125
u_a6=0.918
u_a7=0.667
u_a8=0.452
u_a9=0.918
tau=0.000
K_a0_a1=14
K_a0_a2=14
K_a0_a3=14
K_a0_a4=1
K_a0_a5=14
K_a0_a6=14
K_a0_a7=14
K_a0_a9=14
K_a1_a0=-13
K_a1_a2=14
K_a1_a3=14
K_a1_a4=14
K_a1_a5=14
K_a1_a6=14
K_a1_a7=14
K_a1_a8=14
K_a2_a0=-13
K_a2_a1=-13
K_a2_a3=1
K_a2_a4=14
K_a2_a5=1
K_a2_a6=14
K_a2_a7=14
K_a2_a8=14
K_a2_a9=14
K_a3_a0=-13
K_a3_a1=-13
K_a3_a4=14
K_a3_a5=1
K_a3_a6=14
K_a3_a7=14
K_a3_a8=14
K_a3_a9=14
K_a4_a1=-13
K_a4_a2=-13
K_a4_a3=-13
K_a4_a5=14
K_a4_a6=-13
K_a4_a7=-13
K_a4_a9=-14
K_a5_a0=-13
K_a5_a1=-13
K_a5_a4=-13
K_a5_a6=14
K_a5_a7=14
K_a5_a8=14
K_a5_a9=14
K_a6_a0=-13
K_a6_a1=-13
K_a6_a2=-13
K_a6_a3=-13
K_a6_a4=14
K_a6_a5=-13
K_a6_a7=1
K_a6_a8=14
K_a6_a9=14
K_a7_a0=-13
K_a7_a1=-13
K_a7_a2=-13
K_a7_a3=-13
K_a7_a4=14
K_a7_a5=-13
K_a7_a8=14
K_a7_a9=14
K_a8_a0=1
K_a8_a1=-13
K_a8_a2=-13
K_a8_a3=-13
K_a8_a4=1
K_a8_a5=-13
K_a8_a6=-13
K_a8_a7=-13
K_a8_a9=14
K_a9_a0=-13
K_a9_a1=1
K_a9_a2=-13
K_a9_a3=-13
K_a9_a4=-14
K_a9_a5=-13
K_a9_a6=-13
K_a9_a7=-13
K_a9_a8=-13
m_a0_proc_0=1
m_a1_proc_1=1
m_a2_proc_2=1
m_a3_proc_2=1
m_a4_proc_0=1
m_a5_proc_2=1
m_a6_proc_3=1
m_a7_proc_3=1
m_a8_proc_0=1
m_a9_proc_1=1
y_a0_proc_0=0.000
y_a1_proc_1=0.000
y_a2_proc_2=0.000
y_a3_proc_2=0.000
y_a4_proc_0=0.000
y_a5_proc_2=0.000
y_a6_proc_3=0.000
y_a7_proc_3=0.000
y_a8_proc_0=0.000
y_a9_proc_1=0.000
